(set-option :produce-models true)
(set-option :produce-unsat-cores true)
(set-option :produce-interpolants true)
(set-option :interpolant-check-mode true)
(set-option :proof-transformation LU)
(set-logic ALL)
(set-info :source |SMT script generated on 2024-03-31T00:14:44+01:00 by Ultimate (https://ultimate.informatik.uni-freiburg.de/)|)
(set-info :smt-lib-version 2.5)
(set-info :category "industrial")
(set-info :ultimate-id simple-recursive.c_AllErrorsAtOnce_Iteration6)
(declare-fun |c_old(#valid)| () (Array Int Int))
(declare-fun |c_old(#valid)_primed| () (Array Int Int))
(declare-fun |c_#valid| () (Array Int Int))
(declare-fun |c_#valid_primed| () (Array Int Int))
(declare-fun |c_old(#length)| () (Array Int Int))
(declare-fun |c_old(#length)_primed| () (Array Int Int))
(declare-fun |c_#length| () (Array Int Int))
(declare-fun |c_#length_primed| () (Array Int Int))
(declare-fun |c_old(#memory_int#0)| () (Array Int (Array Int Int)))
(declare-fun |c_old(#memory_int#0)_primed| () (Array Int (Array Int Int)))
(declare-fun |c_#memory_int#0| () (Array Int (Array Int Int)))
(declare-fun |c_#memory_int#0_primed| () (Array Int (Array Int Int)))
(declare-fun |c_old(#memory_int#1)| () (Array Int (Array Int Int)))
(declare-fun |c_old(#memory_int#1)_primed| () (Array Int (Array Int Int)))
(declare-fun |c_#memory_int#1| () (Array Int (Array Int Int)))
(declare-fun |c_#memory_int#1_primed| () (Array Int (Array Int Int)))
(declare-fun |c_old(#StackHeapBarrier)| () Int)
(declare-fun |c_old(#StackHeapBarrier)_primed| () Int)
(declare-fun |c_#StackHeapBarrier| () Int)
(declare-fun |c_#StackHeapBarrier_primed| () Int)
(declare-fun |c_#Ultimate.allocInit_~size| () Int)
(declare-fun |c_#Ultimate.allocInit_~size_primed| () Int)
(declare-fun |c_#Ultimate.allocInit_ptrBase| () Int)
(declare-fun |c_#Ultimate.allocInit_ptrBase_primed| () Int)
(declare-fun |c_read~int#1_#ptr.base| () Int)
(declare-fun |c_read~int#1_#ptr.base_primed| () Int)
(declare-fun |c_read~int#1_#ptr.offset| () Int)
(declare-fun |c_read~int#1_#ptr.offset_primed| () Int)
(declare-fun |c_read~int#1_#sizeOfReadType| () Int)
(declare-fun |c_read~int#1_#sizeOfReadType_primed| () Int)
(declare-fun |c_read~int#1_#value| () Int)
(declare-fun |c_read~int#1_#value_primed| () Int)
(declare-fun |c_foo_#in~p.base| () Int)
(declare-fun |c_foo_#in~p.base_primed| () Int)
(declare-fun |c_foo_#in~p.offset| () Int)
(declare-fun |c_foo_#in~p.offset_primed| () Int)
(declare-fun |c_foo_#t~mem6| () Int)
(declare-fun |c_foo_#t~mem6_primed| () Int)
(declare-fun |c_foo_#t~mem7| () Int)
(declare-fun |c_foo_#t~mem7_primed| () Int)
(declare-fun c_foo_~p.base () Int)
(declare-fun c_foo_~p.base_primed () Int)
(declare-fun c_foo_~p.offset () Int)
(declare-fun c_foo_~p.offset_primed () Int)
(declare-fun |c_read~int#0_#ptr.base| () Int)
(declare-fun |c_read~int#0_#ptr.base_primed| () Int)
(declare-fun |c_read~int#0_#ptr.offset| () Int)
(declare-fun |c_read~int#0_#ptr.offset_primed| () Int)
(declare-fun |c_read~int#0_#sizeOfReadType| () Int)
(declare-fun |c_read~int#0_#sizeOfReadType_primed| () Int)
(declare-fun |c_read~int#0_#value| () Int)
(declare-fun |c_read~int#0_#value_primed| () Int)
(declare-fun |c_main_#in~argc| () Int)
(declare-fun |c_main_#in~argc_primed| () Int)
(declare-fun |c_main_#in~argv.base| () Int)
(declare-fun |c_main_#in~argv.base_primed| () Int)
(declare-fun |c_main_#in~argv.offset| () Int)
(declare-fun |c_main_#in~argv.offset_primed| () Int)
(declare-fun |c_main_#res| () Int)
(declare-fun |c_main_#res_primed| () Int)
(declare-fun c_main_~argc () Int)
(declare-fun c_main_~argc_primed () Int)
(declare-fun |c_main_~#x~0.base| () Int)
(declare-fun |c_main_~#x~0.base_primed| () Int)
(declare-fun |c_main_~#x~0.offset| () Int)
(declare-fun |c_main_~#x~0.offset_primed| () Int)
(declare-fun c_main_~p~0.base () Int)
(declare-fun c_main_~p~0.base_primed () Int)
(declare-fun c_main_~p~0.offset () Int)
(declare-fun c_main_~p~0.offset_primed () Int)
(declare-fun |c_write~int#0_#value| () Int)
(declare-fun |c_write~int#0_#value_primed| () Int)
(declare-fun |c_write~int#0_#ptr.base| () Int)
(declare-fun |c_write~int#0_#ptr.base_primed| () Int)
(declare-fun |c_write~int#0_#ptr.offset| () Int)
(declare-fun |c_write~int#0_#ptr.offset_primed| () Int)
(declare-fun |c_write~int#0_#sizeOfWrittenType| () Int)
(declare-fun |c_write~int#0_#sizeOfWrittenType_primed| () Int)
(declare-fun |c_#Ultimate.allocOnStack_~size| () Int)
(declare-fun |c_#Ultimate.allocOnStack_~size_primed| () Int)
(declare-fun |c_#Ultimate.allocOnStack_#res.base| () Int)
(declare-fun |c_#Ultimate.allocOnStack_#res.base_primed| () Int)
(declare-fun |c_#Ultimate.allocOnStack_#res.offset| () Int)
(declare-fun |c_#Ultimate.allocOnStack_#res.offset_primed| () Int)
(declare-fun |c_plus_#in~p.base| () Int)
(declare-fun |c_plus_#in~p.base_primed| () Int)
(declare-fun |c_plus_#in~p.offset| () Int)
(declare-fun |c_plus_#in~p.offset_primed| () Int)
(declare-fun |c_plus_#t~mem4| () Int)
(declare-fun |c_plus_#t~mem4_primed| () Int)
(declare-fun |c_plus_#t~post5| () Int)
(declare-fun |c_plus_#t~post5_primed| () Int)
(declare-fun c_plus_~p.base () Int)
(declare-fun c_plus_~p.base_primed () Int)
(declare-fun c_plus_~p.offset () Int)
(declare-fun c_plus_~p.offset_primed () Int)
(declare-fun |c_write~int#1_#value| () Int)
(declare-fun |c_write~int#1_#value_primed| () Int)
(declare-fun |c_write~int#1_#ptr.base| () Int)
(declare-fun |c_write~int#1_#ptr.base_primed| () Int)
(declare-fun |c_write~int#1_#ptr.offset| () Int)
(declare-fun |c_write~int#1_#ptr.offset_primed| () Int)
(declare-fun |c_write~int#1_#sizeOfWrittenType| () Int)
(declare-fun |c_write~int#1_#sizeOfWrittenType_primed| () Int)
(declare-fun |c_ULTIMATE.start_#in~argc| () Int)
(declare-fun |c_ULTIMATE.start_#in~argc_primed| () Int)
(declare-fun |c_ULTIMATE.start_#in~argv.base| () Int)
(declare-fun |c_ULTIMATE.start_#in~argv.base_primed| () Int)
(declare-fun |c_ULTIMATE.start_#in~argv.offset| () Int)
(declare-fun |c_ULTIMATE.start_#in~argv.offset_primed| () Int)
(declare-fun |c_ULTIMATE.start_#t~ret8| () Int)
(declare-fun |c_ULTIMATE.start_#t~ret8_primed| () Int)
(declare-fun |c_write~init~int#1_#value| () Int)
(declare-fun |c_write~init~int#1_#value_primed| () Int)
(declare-fun |c_write~init~int#1_#ptr.base| () Int)
(declare-fun |c_write~init~int#1_#ptr.base_primed| () Int)
(declare-fun |c_write~init~int#1_#ptr.offset| () Int)
(declare-fun |c_write~init~int#1_#ptr.offset_primed| () Int)
(declare-fun |c_write~init~int#1_#sizeOfWrittenType| () Int)
(declare-fun |c_write~init~int#1_#sizeOfWrittenType_primed| () Int)
(declare-fun |c___assert_fail_#in~0.base| () Int)
(declare-fun |c___assert_fail_#in~0.base_primed| () Int)
(declare-fun |c___assert_fail_#in~0.offset| () Int)
(declare-fun |c___assert_fail_#in~0.offset_primed| () Int)
(declare-fun |c___assert_fail_#in~1.base| () Int)
(declare-fun |c___assert_fail_#in~1.base_primed| () Int)
(declare-fun |c___assert_fail_#in~1.offset| () Int)
(declare-fun |c___assert_fail_#in~1.offset_primed| () Int)
(declare-fun |c___assert_fail_#in~2| () Int)
(declare-fun |c___assert_fail_#in~2_primed| () Int)
(declare-fun |c___assert_fail_#in~3.base| () Int)
(declare-fun |c___assert_fail_#in~3.base_primed| () Int)
(declare-fun |c___assert_fail_#in~3.offset| () Int)
(declare-fun |c___assert_fail_#in~3.offset_primed| () Int)
(declare-fun |c_write~init~int#0_#value| () Int)
(declare-fun |c_write~init~int#0_#value_primed| () Int)
(declare-fun |c_write~init~int#0_#ptr.base| () Int)
(declare-fun |c_write~init~int#0_#ptr.base_primed| () Int)
(declare-fun |c_write~init~int#0_#ptr.offset| () Int)
(declare-fun |c_write~init~int#0_#ptr.offset_primed| () Int)
(declare-fun |c_write~init~int#0_#sizeOfWrittenType| () Int)
(declare-fun |c_write~init~int#0_#sizeOfWrittenType_primed| () Int)
(declare-fun c_ULTIMATE.dealloc_~addr.base () Int)
(declare-fun c_ULTIMATE.dealloc_~addr.base_primed () Int)
(declare-fun c_ULTIMATE.dealloc_~addr.offset () Int)
(declare-fun c_ULTIMATE.dealloc_~addr.offset_primed () Int)
(declare-fun |c_aux_v_main_~#x~0.offset_4| () Int)
(declare-fun c_aux_v_main_~argc_2 () Int)
(declare-fun |c_aux_v_main_#in~argv.offsetInParam_2| () Int)
(declare-fun |c_aux_v_main_#in~argv.baseInParam_2| () Int)
(declare-fun |c_aux_v_ULTIMATE.start_#t~ret8_3| () Int)
(declare-fun |c_aux_v_main_#in~argv.offsetInParam_3| () Int)
(declare-fun |c_aux_v_main_#in~argv.baseInParam_3| () Int)
(declare-fun c_aux_v_ArrVal_1 () Int)
(declare-fun c_aux_v_main_~argc_3 () Int)
(declare-fun c_aux_v_ArrVal_2 () Int)
(declare-fun c_aux_v_ArrVal_3 () Int)
(declare-fun c_aux_v_ArrVal_4 () (Array Int Int))
(declare-fun |c_aux_v_main_~#x~0.offset_7| () Int)
(declare-fun |c_aux_v_main_#in~argv.offsetInParam_4| () Int)
(declare-fun |c_aux_v_main_#in~argv.baseInParam_4| () Int)
(declare-fun c_aux_v_ArrVal_5 () Int)
(declare-fun c_aux_v_ArrVal_8 () (Array Int Int))
(declare-fun c_aux_v_main_~argc_4 () Int)
(declare-fun c_aux_v_ArrVal_6 () Int)
(declare-fun c_aux_v_ArrVal_7 () Int)
(declare-fun |c_aux_v_main_~#x~0.offset_8| () Int)
(declare-fun c_aux_v_ArrVal_10 () (Array Int Int))
(declare-fun c_aux_v_ArrVal_9 () Int)
(declare-fun |c_aux_v_main_#in~argv.baseInParam_5| () Int)
(declare-fun |c_aux_v_main_#in~argv.offsetInParam_5| () Int)
(declare-fun c_aux_v_main_~argc_5 () Int)
(declare-fun c_aux_v_ArrVal_13 () Int)
(declare-fun c_aux_v_ArrVal_11 () Int)
(declare-fun c_aux_v_ArrVal_12 () Int)
(declare-fun c_aux_v_ArrVal_14 () (Array Int Int))
(declare-fun |c_aux_v_main_~#x~0.offset_9| () Int)
(declare-fun c_aux_v_ArrVal_15 () Int)
(declare-fun c_aux_v_ArrVal_16 () (Array Int Int))
(declare-fun c_aux_v_ArrVal_17 () Int)
(declare-fun c_aux_v_ArrVal_18 () (Array Int Int))
(declare-fun |c_aux_v_main_#in~argv.baseInParam_6| () Int)
(declare-fun |c_aux_v_main_#in~argv.offsetInParam_6| () Int)
(declare-fun c_aux_v_main_~argc_6 () Int)
(declare-fun c_aux_v_ArrVal_19 () Int)
(declare-fun c_aux_v_ArrVal_22 () (Array Int Int))
(declare-fun c_aux_v_ArrVal_20 () Int)
(declare-fun c_aux_v_ArrVal_21 () Int)
(declare-fun |c_aux_v_main_~#x~0.offset_10| () Int)
(declare-fun c_aux_v_ArrVal_24 () (Array Int Int))
(declare-fun c_aux_v_ArrVal_23 () Int)
(declare-fun c_aux_v_ArrVal_25 () Int)
(declare-fun c_aux_v_ArrVal_26 () (Array Int Int))
(declare-fun c_aux_v_ArrVal_27 () Int)
(declare-fun c_aux_v_ArrVal_28 () (Array Int Int))
(declare-fun |c_aux_v_main_#in~argv.baseInParam_7| () Int)
(declare-fun |c_aux_v_main_#in~argv.offsetInParam_7| () Int)
(declare-fun c_aux_v_ArrVal_29 () Int)
(declare-fun c_aux_v_main_~argc_7 () Int)
(declare-fun c_aux_v_ArrVal_32 () (Array Int Int))
(declare-fun c_aux_v_ArrVal_31 () Int)
(declare-fun |c_aux_v_main_~#x~0.offset_11| () Int)
(declare-fun c_aux_v_ArrVal_30 () Int)
(declare-fun c_aux_v_ArrVal_34 () (Array Int Int))
(declare-fun c_aux_v_ArrVal_33 () Int)
(declare-fun c_aux_v_ArrVal_35 () Int)
(declare-fun c_aux_v_ArrVal_36 () (Array Int Int))
(declare-fun c_aux_v_ArrVal_37 () Int)
(declare-fun c_aux_v_ArrVal_38 () (Array Int Int))
(declare-fun c_aux_v_ArrVal_39 () Int)
(declare-fun c_aux_v_ArrVal_40 () (Array Int Int))
(echo "starting trace check")
(push 1)
(declare-fun |#memory_int#0_-1| () (Array Int (Array Int Int)))
(declare-fun |#valid_-1| () (Array Int Int))
(declare-fun |#length_-1| () (Array Int Int))
(declare-fun |#memory_int#1_-1| () (Array Int (Array Int Int)))
(declare-fun |old(#memory_int#0)_-1| () (Array Int (Array Int Int)))
(declare-fun |old(#valid)_-1| () (Array Int Int))
(declare-fun |old(#length)_-1| () (Array Int Int))
(declare-fun |old(#memory_int#1)_-1| () (Array Int (Array Int Int)))
(declare-fun |#StackHeapBarrier_-1| () Int)
(declare-fun |ULTIMATE.start_#in~argc_-1| () Int)
(declare-fun |ULTIMATE.start_#in~argv.offset_-1| () Int)
(declare-fun |ULTIMATE.start_#in~argv.base_-1| () Int)
(declare-fun |old(#valid)_3| () (Array Int Int))
(declare-fun |old(#length)_3| () (Array Int Int))
(declare-fun |old(#memory_int#1)_3| () (Array Int (Array Int Int)))
(declare-fun |#valid_3| () (Array Int Int))
(declare-fun |#length_3| () (Array Int Int))
(declare-fun |#memory_int#1_3| () (Array Int (Array Int Int)))
(declare-fun |main_#in~argc_3| () Int)
(declare-fun |ULTIMATE.start_#in~argc_3| () Int)
(declare-fun |ULTIMATE.start_#in~argv.offset_3| () Int)
(declare-fun |ULTIMATE.start_#in~argv.base_3| () Int)
(declare-fun |v_main_#in~argv.baseInParam_8_fresh_1| () Int)
(declare-fun |v_main_#in~argv.offsetInParam_8_fresh_1| () Int)
(declare-fun |#valid_4| () (Array Int Int))
(declare-fun |#length_4| () (Array Int Int))
(declare-fun main_~p~0.offset_4 () Int)
(declare-fun main_~p~0.base_4 () Int)
(declare-fun |#memory_int#1_4| () (Array Int (Array Int Int)))
(declare-fun |main_~#x~0.base_4| () Int)
(declare-fun v_main_~argc_8_fresh_1 () Int)
(declare-fun v_ArrVal_44_fresh_1 () (Array Int Int))
(declare-fun v_ArrVal_42_fresh_1 () Int)
(declare-fun v_ArrVal_43_fresh_1 () Int)
(declare-fun |v_main_~#x~0.offset_12_fresh_1| () Int)
(declare-fun v_ArrVal_41_fresh_1 () Int)
(declare-fun |old(#memory_int#1)_5| () (Array Int (Array Int Int)))
(declare-fun |#memory_int#1_5| () (Array Int (Array Int Int)))
(declare-fun |foo_#in~p.offset_5| () Int)
(declare-fun |foo_#in~p.base_5| () Int)
(declare-fun main_~p~0.offset_5 () Int)
(declare-fun main_~p~0.base_5 () Int)
(declare-fun foo_~p.base_6 () Int)
(declare-fun |foo_#t~mem6_6| () Int)
(declare-fun foo_~p.offset_6 () Int)
(declare-fun |foo_#t~mem6_7| () Int)
(declare-fun |old(#memory_int#1)_8| () (Array Int (Array Int Int)))
(declare-fun |#memory_int#1_8| () (Array Int (Array Int Int)))
(declare-fun |plus_#in~p.offset_8| () Int)
(declare-fun foo_~p.base_8 () Int)
(declare-fun |plus_#in~p.base_8| () Int)
(declare-fun foo_~p.offset_8 () Int)
(declare-fun plus_~p.offset_9 () Int)
(declare-fun |plus_#t~post5_9| () Int)
(declare-fun |plus_#t~mem4_9| () Int)
(declare-fun |#memory_int#1_9| () (Array Int (Array Int Int)))
(declare-fun plus_~p.base_9 () Int)
(declare-fun v_ArrVal_46_fresh_1 () (Array Int Int))
(declare-fun v_ArrVal_45_fresh_1 () Int)
(declare-fun |old(#memory_int#1)_10| () (Array Int (Array Int Int)))
(declare-fun |#memory_int#1_10| () (Array Int (Array Int Int)))
(declare-fun plus_~p.offset_10 () Int)
(declare-fun |foo_#in~p.offset_10| () Int)
(declare-fun |foo_#in~p.base_10| () Int)
(declare-fun plus_~p.base_10 () Int)
(declare-fun foo_~p.base_11 () Int)
(declare-fun |foo_#t~mem6_11| () Int)
(declare-fun foo_~p.offset_11 () Int)
(declare-fun |foo_#t~mem6_12| () Int)
(declare-fun |old(#memory_int#1)_13| () (Array Int (Array Int Int)))
(declare-fun |#memory_int#1_13| () (Array Int (Array Int Int)))
(declare-fun |plus_#in~p.offset_13| () Int)
(declare-fun foo_~p.base_13 () Int)
(declare-fun |plus_#in~p.base_13| () Int)
(declare-fun foo_~p.offset_13 () Int)
(declare-fun plus_~p.offset_14 () Int)
(declare-fun |plus_#t~post5_14| () Int)
(declare-fun |plus_#t~mem4_14| () Int)
(declare-fun |#memory_int#1_14| () (Array Int (Array Int Int)))
(declare-fun plus_~p.base_14 () Int)
(declare-fun v_ArrVal_47_fresh_1 () Int)
(declare-fun v_ArrVal_48_fresh_1 () (Array Int Int))
(declare-fun |old(#memory_int#1)_15| () (Array Int (Array Int Int)))
(declare-fun |#memory_int#1_15| () (Array Int (Array Int Int)))
(declare-fun plus_~p.offset_15 () Int)
(declare-fun |foo_#in~p.offset_15| () Int)
(declare-fun |foo_#in~p.base_15| () Int)
(declare-fun plus_~p.base_15 () Int)
(declare-fun foo_~p.base_16 () Int)
(declare-fun |foo_#t~mem6_16| () Int)
(declare-fun foo_~p.offset_16 () Int)
(declare-fun |foo_#t~mem6_17| () Int)
(declare-fun |old(#memory_int#1)_18| () (Array Int (Array Int Int)))
(declare-fun |#memory_int#1_18| () (Array Int (Array Int Int)))
(declare-fun |plus_#in~p.offset_18| () Int)
(declare-fun foo_~p.base_18 () Int)
(declare-fun |plus_#in~p.base_18| () Int)
(declare-fun foo_~p.offset_18 () Int)
(declare-fun plus_~p.offset_19 () Int)
(declare-fun |plus_#t~post5_19| () Int)
(declare-fun |plus_#t~mem4_19| () Int)
(declare-fun |#memory_int#1_19| () (Array Int (Array Int Int)))
(declare-fun plus_~p.base_19 () Int)
(declare-fun v_ArrVal_50_fresh_1 () (Array Int Int))
(declare-fun v_ArrVal_49_fresh_1 () Int)
(declare-fun |old(#memory_int#1)_20| () (Array Int (Array Int Int)))
(declare-fun |#memory_int#1_20| () (Array Int (Array Int Int)))
(declare-fun plus_~p.offset_20 () Int)
(declare-fun |foo_#in~p.offset_20| () Int)
(declare-fun |foo_#in~p.base_20| () Int)
(declare-fun plus_~p.base_20 () Int)
(declare-fun foo_~p.base_21 () Int)
(declare-fun |foo_#t~mem6_21| () Int)
(declare-fun foo_~p.offset_21 () Int)
(declare-fun |foo_#t~mem6_22| () Int)
(declare-fun |old(#memory_int#1)_23| () (Array Int (Array Int Int)))
(declare-fun |#memory_int#1_23| () (Array Int (Array Int Int)))
(declare-fun |plus_#in~p.offset_23| () Int)
(declare-fun foo_~p.base_23 () Int)
(declare-fun |plus_#in~p.base_23| () Int)
(declare-fun foo_~p.offset_23 () Int)
(declare-fun plus_~p.offset_24 () Int)
(declare-fun |plus_#t~post5_24| () Int)
(declare-fun |plus_#t~mem4_24| () Int)
(declare-fun |#memory_int#1_24| () (Array Int (Array Int Int)))
(declare-fun plus_~p.base_24 () Int)
(declare-fun v_ArrVal_52_fresh_1 () (Array Int Int))
(declare-fun v_ArrVal_51_fresh_1 () Int)
(declare-fun |old(#memory_int#1)_25| () (Array Int (Array Int Int)))
(declare-fun |#memory_int#1_25| () (Array Int (Array Int Int)))
(declare-fun plus_~p.offset_25 () Int)
(declare-fun |foo_#in~p.offset_25| () Int)
(declare-fun |foo_#in~p.base_25| () Int)
(declare-fun plus_~p.base_25 () Int)
(declare-fun foo_~p.base_26 () Int)
(declare-fun |foo_#t~mem6_26| () Int)
(declare-fun foo_~p.offset_26 () Int)
(declare-fun |foo_#t~mem6_27| () Int)
(declare-fun |old(#memory_int#1)_28| () (Array Int (Array Int Int)))
(declare-fun |#memory_int#1_28| () (Array Int (Array Int Int)))
(declare-fun |plus_#in~p.offset_28| () Int)
(declare-fun foo_~p.base_28 () Int)
(declare-fun |plus_#in~p.base_28| () Int)
(declare-fun foo_~p.offset_28 () Int)
(declare-fun plus_~p.offset_29 () Int)
(declare-fun |plus_#t~post5_29| () Int)
(declare-fun |plus_#t~mem4_29| () Int)
(declare-fun |#memory_int#1_29| () (Array Int (Array Int Int)))
(declare-fun plus_~p.base_29 () Int)
(declare-fun v_ArrVal_54_fresh_1 () (Array Int Int))
(declare-fun v_ArrVal_53_fresh_1 () Int)
(declare-fun |old(#memory_int#1)_30| () (Array Int (Array Int Int)))
(declare-fun |#memory_int#1_30| () (Array Int (Array Int Int)))
(declare-fun plus_~p.offset_30 () Int)
(declare-fun |foo_#in~p.offset_30| () Int)
(declare-fun |foo_#in~p.base_30| () Int)
(declare-fun plus_~p.base_30 () Int)
(declare-fun foo_~p.base_31 () Int)
(declare-fun |foo_#t~mem6_31| () Int)
(declare-fun foo_~p.offset_31 () Int)
(declare-fun |foo_#t~mem7_32| () Int)
(declare-fun foo_~p.base_32 () Int)
(declare-fun |foo_#t~mem6_32| () Int)
(declare-fun foo_~p.offset_32 () Int)
(declare-fun |foo_#t~mem7_33| () Int)
(assert (! true :named ssa_precond))
(assert (! (not false) :named ssa_postcond))
(assert (! true :named ssa_0_GlobVarAssigCall))
(assert (! true :named ssa_0_LocVarAssigCall))
(assert (! true :named ssa_0_OldVarAssigCall))
(assert (! (and (= (select |#valid_-1| 1) 1) (= (select |#valid_-1| 2) 1) (= (select |#length_-1| 2) 19) (< 0 |#StackHeapBarrier_-1|) (= (select |#valid_-1| 3) 1) (= (select |#valid_-1| 0) 0) (= (select |#length_-1| 1) 2) (= (select |#length_-1| 3) 12) (= (select (select |#memory_int#0_-1| 1) 1) 0) (= (select (select |#memory_int#0_-1| 1) 0) 48)) :named ssa_1))
(assert (! true :named ssa_2_return))
(assert (! (and (= |old(#valid)_3| |#valid_3|) (= |#length_3| |old(#length)_3|) (= |old(#memory_int#1)_3| |#memory_int#1_3|)) :named ssa_3_GlobVarAssigCall))
(assert (! (and (= |v_main_#in~argv.baseInParam_8_fresh_1| |ULTIMATE.start_#in~argv.base_-1|) (= |v_main_#in~argv.offsetInParam_8_fresh_1| |ULTIMATE.start_#in~argv.offset_-1|) (= |main_#in~argc_3| |ULTIMATE.start_#in~argc_-1|)) :named ssa_3_LocVarAssigCall))
(assert (! (and (= |old(#length)_3| |#length_-1|) (= |#valid_-1| |old(#valid)_3|) (= |old(#memory_int#1)_3| |#memory_int#1_-1|)) :named ssa_3_OldVarAssigCall))
(assert (! (and (< |#StackHeapBarrier_-1| |main_~#x~0.base_4|) (= (store (select |#memory_int#1_3| main_~p~0.base_4) main_~p~0.offset_4 v_ArrVal_43_fresh_1) v_ArrVal_44_fresh_1) (= |v_main_~#x~0.offset_12_fresh_1| 0) (= |#valid_4| (store |#valid_3| |main_~#x~0.base_4| v_ArrVal_41_fresh_1)) (not (= |main_~#x~0.base_4| 0)) (= (select |#valid_3| |main_~#x~0.base_4|) 0) (= v_ArrVal_41_fresh_1 1) (= |main_#in~argc_3| v_main_~argc_8_fresh_1) (= v_ArrVal_43_fresh_1 10) (= (store |#memory_int#1_3| main_~p~0.base_4 v_ArrVal_44_fresh_1) |#memory_int#1_4|) (= main_~p~0.offset_4 |v_main_~#x~0.offset_12_fresh_1|) (= 0 (select (select |#memory_int#1_3| |main_~#x~0.base_4|) |v_main_~#x~0.offset_12_fresh_1|)) (= |#length_4| (store |#length_3| |main_~#x~0.base_4| v_ArrVal_42_fresh_1)) (= 4 v_ArrVal_42_fresh_1) (= |main_~#x~0.base_4| main_~p~0.base_4)) :named ssa_4))
(assert (! (= |old(#memory_int#1)_5| |#memory_int#1_5|) :named ssa_5_GlobVarAssigCall))
(assert (! (and (= main_~p~0.offset_4 |foo_#in~p.offset_5|) (= |foo_#in~p.base_5| main_~p~0.base_4)) :named ssa_5_LocVarAssigCall))
(assert (! (= |old(#memory_int#1)_5| |#memory_int#1_4|) :named ssa_5_OldVarAssigCall))
(assert (! (and (= |foo_#t~mem6_6| (select (select |#memory_int#1_5| foo_~p.base_6) foo_~p.offset_6)) (= foo_~p.offset_6 |foo_#in~p.offset_5|) (= |foo_#in~p.base_5| foo_~p.base_6)) :named ssa_6))
(assert (! (< |foo_#t~mem6_6| 20) :named ssa_7))
(assert (! (= |old(#memory_int#1)_8| |#memory_int#1_8|) :named ssa_8_GlobVarAssigCall))
(assert (! (and (= foo_~p.offset_6 |plus_#in~p.offset_8|) (= foo_~p.base_6 |plus_#in~p.base_8|)) :named ssa_8_LocVarAssigCall))
(assert (! (= |old(#memory_int#1)_8| |#memory_int#1_5|) :named ssa_8_OldVarAssigCall))
(assert (! (and (= |plus_#in~p.base_8| plus_~p.base_9) (= (store |#memory_int#1_8| plus_~p.base_9 v_ArrVal_46_fresh_1) |#memory_int#1_9|) (= (store (select |#memory_int#1_8| plus_~p.base_9) plus_~p.offset_9 v_ArrVal_45_fresh_1) v_ArrVal_46_fresh_1) (= |plus_#in~p.offset_8| plus_~p.offset_9) (= (+ (select (select |#memory_int#1_8| plus_~p.base_9) plus_~p.offset_9) 1) v_ArrVal_45_fresh_1)) :named ssa_9))
(assert (! (= |old(#memory_int#1)_10| |#memory_int#1_10|) :named ssa_10_GlobVarAssigCall))
(assert (! (and (= |foo_#in~p.base_10| plus_~p.base_9) (= |foo_#in~p.offset_10| plus_~p.offset_9)) :named ssa_10_LocVarAssigCall))
(assert (! (= |old(#memory_int#1)_10| |#memory_int#1_9|) :named ssa_10_OldVarAssigCall))
(assert (! (and (= |foo_#t~mem6_11| (select (select |#memory_int#1_10| foo_~p.base_11) foo_~p.offset_11)) (= foo_~p.offset_11 |foo_#in~p.offset_10|) (= |foo_#in~p.base_10| foo_~p.base_11)) :named ssa_11))
(assert (! (< |foo_#t~mem6_11| 20) :named ssa_12))
(assert (! (= |old(#memory_int#1)_13| |#memory_int#1_13|) :named ssa_13_GlobVarAssigCall))
(assert (! (and (= foo_~p.offset_11 |plus_#in~p.offset_13|) (= foo_~p.base_11 |plus_#in~p.base_13|)) :named ssa_13_LocVarAssigCall))
(assert (! (= |old(#memory_int#1)_13| |#memory_int#1_10|) :named ssa_13_OldVarAssigCall))
(assert (! (and (= |plus_#in~p.base_13| plus_~p.base_14) (= (store (select |#memory_int#1_13| plus_~p.base_14) plus_~p.offset_14 v_ArrVal_47_fresh_1) v_ArrVal_48_fresh_1) (= (+ (select (select |#memory_int#1_13| plus_~p.base_14) plus_~p.offset_14) 1) v_ArrVal_47_fresh_1) (= (store |#memory_int#1_13| plus_~p.base_14 v_ArrVal_48_fresh_1) |#memory_int#1_14|) (= |plus_#in~p.offset_13| plus_~p.offset_14)) :named ssa_14))
(assert (! (= |old(#memory_int#1)_15| |#memory_int#1_15|) :named ssa_15_GlobVarAssigCall))
(assert (! (and (= |foo_#in~p.base_15| plus_~p.base_14) (= |foo_#in~p.offset_15| plus_~p.offset_14)) :named ssa_15_LocVarAssigCall))
(assert (! (= |old(#memory_int#1)_15| |#memory_int#1_14|) :named ssa_15_OldVarAssigCall))
(assert (! (and (= |foo_#t~mem6_16| (select (select |#memory_int#1_15| foo_~p.base_16) foo_~p.offset_16)) (= foo_~p.offset_16 |foo_#in~p.offset_15|) (= |foo_#in~p.base_15| foo_~p.base_16)) :named ssa_16))
(assert (! (< |foo_#t~mem6_16| 20) :named ssa_17))
(assert (! (= |old(#memory_int#1)_18| |#memory_int#1_18|) :named ssa_18_GlobVarAssigCall))
(assert (! (and (= foo_~p.offset_16 |plus_#in~p.offset_18|) (= foo_~p.base_16 |plus_#in~p.base_18|)) :named ssa_18_LocVarAssigCall))
(assert (! (= |old(#memory_int#1)_18| |#memory_int#1_15|) :named ssa_18_OldVarAssigCall))
(assert (! (and (= |plus_#in~p.base_18| plus_~p.base_19) (= (store (select |#memory_int#1_18| plus_~p.base_19) plus_~p.offset_19 v_ArrVal_49_fresh_1) v_ArrVal_50_fresh_1) (= (+ (select (select |#memory_int#1_18| plus_~p.base_19) plus_~p.offset_19) 1) v_ArrVal_49_fresh_1) (= (store |#memory_int#1_18| plus_~p.base_19 v_ArrVal_50_fresh_1) |#memory_int#1_19|) (= |plus_#in~p.offset_18| plus_~p.offset_19)) :named ssa_19))
(assert (! (= |old(#memory_int#1)_20| |#memory_int#1_20|) :named ssa_20_GlobVarAssigCall))
(assert (! (and (= |foo_#in~p.base_20| plus_~p.base_19) (= |foo_#in~p.offset_20| plus_~p.offset_19)) :named ssa_20_LocVarAssigCall))
(assert (! (= |old(#memory_int#1)_20| |#memory_int#1_19|) :named ssa_20_OldVarAssigCall))
(assert (! (and (= |foo_#t~mem6_21| (select (select |#memory_int#1_20| foo_~p.base_21) foo_~p.offset_21)) (= foo_~p.offset_21 |foo_#in~p.offset_20|) (= |foo_#in~p.base_20| foo_~p.base_21)) :named ssa_21))
(assert (! (< |foo_#t~mem6_21| 20) :named ssa_22))
(assert (! (= |old(#memory_int#1)_23| |#memory_int#1_23|) :named ssa_23_GlobVarAssigCall))
(assert (! (and (= foo_~p.offset_21 |plus_#in~p.offset_23|) (= foo_~p.base_21 |plus_#in~p.base_23|)) :named ssa_23_LocVarAssigCall))
(assert (! (= |old(#memory_int#1)_23| |#memory_int#1_20|) :named ssa_23_OldVarAssigCall))
(assert (! (and (= (store |#memory_int#1_23| plus_~p.base_24 v_ArrVal_52_fresh_1) |#memory_int#1_24|) (= |plus_#in~p.base_23| plus_~p.base_24) (= (store (select |#memory_int#1_23| plus_~p.base_24) plus_~p.offset_24 v_ArrVal_51_fresh_1) v_ArrVal_52_fresh_1) (= (+ (select (select |#memory_int#1_23| plus_~p.base_24) plus_~p.offset_24) 1) v_ArrVal_51_fresh_1) (= |plus_#in~p.offset_23| plus_~p.offset_24)) :named ssa_24))
(assert (! (= |old(#memory_int#1)_25| |#memory_int#1_25|) :named ssa_25_GlobVarAssigCall))
(assert (! (and (= |foo_#in~p.base_25| plus_~p.base_24) (= |foo_#in~p.offset_25| plus_~p.offset_24)) :named ssa_25_LocVarAssigCall))
(assert (! (= |old(#memory_int#1)_25| |#memory_int#1_24|) :named ssa_25_OldVarAssigCall))
(assert (! (and (= |foo_#t~mem6_26| (select (select |#memory_int#1_25| foo_~p.base_26) foo_~p.offset_26)) (= foo_~p.offset_26 |foo_#in~p.offset_25|) (= |foo_#in~p.base_25| foo_~p.base_26)) :named ssa_26))
(assert (! (< |foo_#t~mem6_26| 20) :named ssa_27))
(assert (! (= |old(#memory_int#1)_28| |#memory_int#1_28|) :named ssa_28_GlobVarAssigCall))
(assert (! (and (= foo_~p.offset_26 |plus_#in~p.offset_28|) (= foo_~p.base_26 |plus_#in~p.base_28|)) :named ssa_28_LocVarAssigCall))
(assert (! (= |old(#memory_int#1)_28| |#memory_int#1_25|) :named ssa_28_OldVarAssigCall))
(assert (! (and (= (+ (select (select |#memory_int#1_28| plus_~p.base_29) plus_~p.offset_29) 1) v_ArrVal_53_fresh_1) (= |plus_#in~p.base_28| plus_~p.base_29) (= (store |#memory_int#1_28| plus_~p.base_29 v_ArrVal_54_fresh_1) |#memory_int#1_29|) (= (store (select |#memory_int#1_28| plus_~p.base_29) plus_~p.offset_29 v_ArrVal_53_fresh_1) v_ArrVal_54_fresh_1) (= |plus_#in~p.offset_28| plus_~p.offset_29)) :named ssa_29))
(assert (! (= |old(#memory_int#1)_30| |#memory_int#1_30|) :named ssa_30_GlobVarAssigCall))
(assert (! (and (= |foo_#in~p.base_30| plus_~p.base_29) (= |foo_#in~p.offset_30| plus_~p.offset_29)) :named ssa_30_LocVarAssigCall))
(assert (! (= |old(#memory_int#1)_30| |#memory_int#1_29|) :named ssa_30_OldVarAssigCall))
(assert (! (and (= |foo_#t~mem6_31| (select (select |#memory_int#1_30| foo_~p.base_31) foo_~p.offset_31)) (= foo_~p.offset_31 |foo_#in~p.offset_30|) (= |foo_#in~p.base_30| foo_~p.base_31)) :named ssa_31))
(assert (! (and (<= 20 |foo_#t~mem6_31|) (= |foo_#t~mem7_32| (select (select |#memory_int#1_30| foo_~p.base_31) foo_~p.offset_31))) :named ssa_32))
(assert (! (not (= |foo_#t~mem7_32| 20)) :named ssa_33))
(assert (! true :named ssa_34))
(check-sat)
(get-interpolants (and ssa_0_LocVarAssigCall ssa_precond ssa_0_GlobVarAssigCall ssa_0_OldVarAssigCall ssa_2_return ssa_1) (and ssa_3_OldVarAssigCall ssa_3_LocVarAssigCall ssa_3_GlobVarAssigCall) ssa_4 (and ssa_5_LocVarAssigCall ssa_5_GlobVarAssigCall ssa_5_OldVarAssigCall) ssa_6 ssa_7 (and ssa_8_GlobVarAssigCall ssa_8_OldVarAssigCall ssa_8_LocVarAssigCall) ssa_9 (and ssa_10_GlobVarAssigCall ssa_10_OldVarAssigCall ssa_10_LocVarAssigCall) ssa_11 ssa_12 (and ssa_13_LocVarAssigCall ssa_13_OldVarAssigCall ssa_13_GlobVarAssigCall) ssa_14 (and ssa_15_LocVarAssigCall ssa_15_GlobVarAssigCall ssa_15_OldVarAssigCall) ssa_16 ssa_17 (and ssa_18_LocVarAssigCall ssa_18_GlobVarAssigCall ssa_18_OldVarAssigCall) ssa_19 (and ssa_20_GlobVarAssigCall ssa_20_OldVarAssigCall ssa_20_LocVarAssigCall) ssa_21 ssa_22 (and ssa_23_OldVarAssigCall ssa_23_LocVarAssigCall ssa_23_GlobVarAssigCall) ssa_24 (and ssa_25_GlobVarAssigCall ssa_25_OldVarAssigCall ssa_25_LocVarAssigCall) ssa_26 ssa_27 (and ssa_28_OldVarAssigCall ssa_28_GlobVarAssigCall ssa_28_LocVarAssigCall) ssa_29 (and ssa_30_LocVarAssigCall ssa_30_OldVarAssigCall ssa_30_GlobVarAssigCall) ssa_31 ssa_32 ssa_33 (and ssa_34 ssa_postcond))
(echo "finished trace check")
(pop 1)
(echo "starting trace check")
(push 1)
(declare-fun |#memory_int#0_-2| () (Array Int (Array Int Int)))
(declare-fun |#valid_-2| () (Array Int Int))
(declare-fun |#length_-2| () (Array Int Int))
(declare-fun |#memory_int#1_-2| () (Array Int (Array Int Int)))
(declare-fun |old(#memory_int#0)_-2| () (Array Int (Array Int Int)))
(declare-fun |old(#valid)_-2| () (Array Int Int))
(declare-fun |old(#length)_-2| () (Array Int Int))
(declare-fun |old(#memory_int#1)_-2| () (Array Int (Array Int Int)))
(declare-fun |#StackHeapBarrier_-1| () Int)
(assert (! true :named ssa_precond))
(assert (! (not true) :named ssa_postcond))
(assert (! (and (= (select |#valid_-2| 1) 1) (= (select |#valid_-2| 2) 1) (= (select |#length_-2| 2) 19) (< 0 |#StackHeapBarrier_-1|) (= (select |#valid_-2| 3) 1) (= (select |#valid_-2| 0) 0) (= (select |#length_-2| 1) 2) (= (select |#length_-2| 3) 12) (= (select (select |#memory_int#0_-2| 1) 1) 0) (= (select (select |#memory_int#0_-2| 1) 0) 48)) :named ssa_0))
(assert (! true :named ssa_1_return))
(assert (! true :named ssa_-2_PendingContext))
(assert (! true :named ssa_-2_LocVarAssignPendingContext))
(assert (! true :named ssa_-2_OldVarAssignPendingContext))
(check-sat)
(get-interpolants (and ssa_0 ssa_precond) (and ssa_-2_PendingContext ssa_-2_LocVarAssignPendingContext ssa_-2_OldVarAssignPendingContext ssa_1_return ssa_postcond))
(echo "finished trace check")
(pop 1)
(exit)
